
(set-logic ALL) 

(declare-datatype MyList ((Nil) (Cons (head Real) (tail MyList)) )) 
(declare-fun l0 () MyList) 
(declare-fun l1 () MyList) 
(declare-fun l2 () MyList) 
(declare-fun l3 () MyList) 
(declare-fun i0 () Real) 
(declare-fun i1 () Real) 
(assert (not (= l0 Nil)) )
(assert (is-Nil Nil) )
(assert (and (is-Nil Nil) (is-Cons Nil) (= l1 Nil)) )
(assert (not (= l2 l2)) )
(assert (= l3 Nil) )
(assert (is-Cons Nil) )
(assert (and (= l3 l2) (= l3 Nil) (= l3 Nil)) )
(assert (not (is-Cons l1)) )
(check-sat)
